(set-info :smt-lib-version 2.6)
(set-logic QF_SLIA)
(set-info :source |
Generated by: Dmitry Blotsky1, Federico Mora, Murphy Berzish, Yunhui Zheng, Ifaz Kabir, Vijay Ganesh, Zhengyang Lu
Generated on: 2018-01-24
Generator: StringFuzz
Application: Evaluate string solvers
Target solver: Z3str3, CVC4, Z3str2, Norn
Publications: Blotsky, D., Mora, F., Berzish, M., Zheng, Y., Kabir, I., & Ganesh, V. (2018). Stringfuzz: A fuzzer for string solvers. In CAV 2018.
Description: new instance generated by StringFuzz, a modular string and regex fuzzer
|)
(set-info :license "https://creativecommons.org/licenses/by/4.0/")
(set-info :category "random")
(set-info :status unknown)

(declare-fun var0 () String)
(assert (str.in_re var0 (re.++ (re.+ (re.+ (str.to_re "000"))) (re.++ (re.+ (re.+ (str.to_re "11"))) (re.++ (re.* (re.+ (str.to_re "2"))) (re.++ (re.union (re.+ (str.to_re "33")) (re.+ (str.to_re "4"))) (re.++ (re.* (re.+ (str.to_re "555"))) (re.++ (re.union (re.union (str.to_re "66") (str.to_re "777")) (re.* (str.to_re "88"))) (re.++ (re.* (re.union (str.to_re "99") (str.to_re "aa"))) (re.++ (re.union (re.+ (str.to_re "b")) (re.+ (str.to_re "c"))) (re.++ (re.union (re.+ (str.to_re "d")) (re.+ (str.to_re "e"))) (re.++ (re.* (re.+ (str.to_re "fff"))) (re.++ (re.* (re.union (str.to_re "gg") (str.to_re "hhh"))) (re.++ (re.+ (re.union (str.to_re "i") (str.to_re "j"))) (re.++ (re.+ (re.* (str.to_re "kkk"))) (re.++ (re.* (re.+ (str.to_re "ll"))) (re.++ (re.+ (re.union (str.to_re "mmm") (str.to_re "n"))) (re.++ (re.union (re.* (str.to_re "o")) (re.* (str.to_re "pp"))) (re.++ (re.* (re.+ (str.to_re "q"))) (re.++ (re.* (re.+ (str.to_re "r"))) (re.++ (re.* (re.* (str.to_re "ss"))) (re.++ (re.* (re.union (str.to_re "tt") (str.to_re "u"))) (re.++ (re.* (re.* (str.to_re "vvv"))) (re.++ (re.union (re.union (str.to_re "ww") (str.to_re "x")) (re.union (str.to_re "yyy") (str.to_re "zz"))) (re.++ (re.+ (re.union (str.to_re "AAA") (str.to_re "BBB"))) (re.++ (re.union (re.* (str.to_re "CCC")) (re.+ (str.to_re "DDD"))) (re.++ (re.* (re.+ (str.to_re "EEE"))) (re.++ (re.+ (re.+ (str.to_re "FF"))) (re.++ (re.* (re.+ (str.to_re "GG"))) (re.++ (re.+ (re.* (str.to_re "HH"))) (re.++ (re.+ (re.* (str.to_re "III"))) (re.++ (re.+ (re.union (str.to_re "J") (str.to_re "KK"))) (re.++ (re.+ (re.* (str.to_re "L"))) (re.++ (re.* (re.union (str.to_re "M") (str.to_re "N"))) (re.++ (re.+ (re.union (str.to_re "OO") (str.to_re "PP"))) (re.++ (re.union (re.union (str.to_re "QQQ") (str.to_re "RR")) (re.+ (str.to_re "S"))) (re.* (re.union (str.to_re "TT") (str.to_re "U")))))))))))))))))))))))))))))))))))))))
(check-sat)
(exit)
